n_res = 4;
rc = [ 24, 23, 27, 21 ];
n_tasks = 30;
d = [ 8, 6, 4, 4, 8, 3, 5, 3, 4, 1, 10, 2, 7, 5, 2, 7, 1, 10, 3, 4, 1, 10, 5, 10, 10, 8, 10, 8, 9, 1 ];
rr = [| 24, 24, 24, 24, 24, 24, 24, 24, 24, 24, 24, 24, 24, 24, 24, 24, 24, 24, 24, 24, 24, 24, 24, 24, 24, 24, 24, 24, 24, 24
      | 23, 23, 23, 23, 23, 23, 23, 23, 23, 23, 23, 23, 23, 23, 23, 23, 23, 23, 23, 23, 23, 23, 23, 23, 23, 23, 23, 23, 23, 23
      | 27, 27, 27, 27, 27, 27, 27, 27, 27, 27, 27, 27, 27, 27, 27, 27, 27, 27, 27, 27, 27, 27, 27, 27, 27, 27, 27, 27, 27, 27
      | 21, 21, 21, 21, 21, 21, 21, 21, 21, 21, 21, 21, 21, 21, 21, 21, 21, 21, 21, 21, 21, 21, 21, 21, 21, 21, 21, 21, 21, 21|];
suc = [ { 9, 20 },
       { 4, 16, 17 },
       { 5, 7, 28 },
       { 5, 6, 18 },
       { 30 },
       { 8, 13, 22 },
       { 10, 26 },
       { 11, 19, 23 },
       { 24 },
       { 16, 21 },
       { 12 },
       { 14, 25 },
       { 14, 15 },
       { 20, 29 },
       { 19, 20, 21 },
       { 18, 29 },
       { 19, 24 },
       { 30 },
       { 25, 27 },
       { 26, 27 },
       { 23 },
       { 23, 24, 25 },
       { 29 },
       { 26, 27 },
       { 28 },
       { 30 },
       { 28 },
       {  },
       {  },
       {  } ];
